(set-info :status unknown)
(declare-fun C3 () (_ BitVec 11))
(declare-fun C2 () (_ BitVec 11))
(declare-fun C () (_ BitVec 8))
(declare-fun %Op () (_ BitVec 8))
(assert
 (let ((?x19988 (bvsub C2 C3)))
 (let ((?x13202 (ite (and (distinct ((_ extract 2 2) ?x19988) (_ bv0 1)) true) (_ bv2 11) (ite (and (distinct ((_ extract 1 1) ?x19988) (_ bv0 1)) true) (_ bv1 11) (_ bv0 11)))))
 (let ((?x6534 (ite (and (distinct ((_ extract 5 5) ?x19988) (_ bv0 1)) true) (_ bv5 11) (ite (and (distinct ((_ extract 4 4) ?x19988) (_ bv0 1)) true) (_ bv4 11) (_ bv3 11)))))
 (let ((?x16988 (ite (and (distinct ((_ extract 8 8) ?x19988) (_ bv0 1)) true) (_ bv8 11) (ite (and (distinct ((_ extract 7 7) ?x19988) (_ bv0 1)) true) (_ bv7 11) (_ bv6 11)))))
 (let ((?x6660 (ite (and (distinct ((_ extract 10 9) ?x19988) (_ bv0 2)) true) (ite (and (distinct ((_ extract 10 10) ?x19988) (_ bv0 1)) true) (_ bv10 11) (_ bv9 11)) ?x16988)))
 (let ((?x23095 (ite (and (distinct ((_ extract 10 6) ?x19988) (_ bv0 5)) true) ?x6660 (ite (and (distinct ((_ extract 5 3) ?x19988) (_ bv0 3)) true) ?x6534 ?x13202))))
 (let ((?x16752 (ite (and (distinct ((_ extract 3 2) C) (_ bv0 2)) true) (ite (and (distinct ((_ extract 3 3) C) (_ bv0 1)) true) (_ bv3 11) (_ bv2 11)) (ite (and (distinct ((_ extract 1 1) C) (_ bv0 1)) true) (_ bv1 11) (_ bv0 11)))))
 (let ((?x20859 (ite (and (distinct ((_ extract 7 6) C) (_ bv0 2)) true) (ite (and (distinct ((_ extract 7 7) C) (_ bv0 1)) true) (_ bv7 11) (_ bv6 11)) (ite (and (distinct ((_ extract 5 5) C) (_ bv0 1)) true) (_ bv5 11) (_ bv4 11)))))
 (let ((?x6124 (bvsub (ite (and (distinct ((_ extract 7 4) C) (_ bv0 4)) true) ?x20859 ?x16752) ?x23095)))
 (let ((?x12595 (ite (bvsgt (_ bv0 11) ?x6124) (_ bv0 11) ?x6124)))
 (let ((?x6641 (bvsub ?x23095 (ite (and (distinct ((_ extract 7 4) C) (_ bv0 4)) true) ?x20859 ?x16752))))
 (let ((?x9519 (ite (bvsgt (_ bv0 11) ?x6641) (_ bv0 11) ?x6641)))
 (let ((?x19515 (bvxor (bvlshr (bvshl ((_ zero_extend 3) (bvand %Op C)) ?x9519) ?x12595) ?x19988)))
 (let (($x10993 (and (distinct (ite (= (ite (= (bvand %Op C) (_ bv0 8)) (_ bv1 1) (_ bv0 1)) (_ bv1 1)) C2 C3) (bvadd ?x19515 C3)) true)))
 (let ((?x2699 (ite (and (distinct ((_ extract 3 2) C) (_ bv0 2)) true) (ite (and (distinct ((_ extract 3 3) C) (_ bv0 1)) true) (_ bv3 32) (_ bv2 32)) (ite (and (distinct ((_ extract 1 1) C) (_ bv0 1)) true) (_ bv1 32) (_ bv0 32)))))
 (let ((?x6554 (ite (and (distinct ((_ extract 7 6) C) (_ bv0 2)) true) (ite (and (distinct ((_ extract 7 7) C) (_ bv0 1)) true) (_ bv7 32) (_ bv6 32)) (ite (and (distinct ((_ extract 5 5) C) (_ bv0 1)) true) (_ bv5 32) (_ bv4 32)))))
 (and (and (and (distinct C (_ bv0 8)) true) (= (bvand C (bvsub C (_ bv1 8))) (_ bv0 8))) (and (and (distinct ?x19988 (_ bv0 11)) true) (= (bvand ?x19988 (bvsub ?x19988 (_ bv1 11))) (_ bv0 11))) (bvslt (ite (and (distinct ((_ extract 7 4) C) (_ bv0 4)) true) ?x6554 ?x2699) (_ bv11 32)) $x10993))))))))))))))))))
(check-sat)
